benchmarks/bfuzz0/125001924223031319921478457111329710966.smt2
(set-logic QF_FP)
(declare-const x0 (_ FloatingPoint 11 53))
(declare-const x1 (_ FloatingPoint 11 53))
(declare-const x2 (_ FloatingPoint 11 53))
(declare-const x3 (_ FloatingPoint 11 53))
(declare-const x4 (_ FloatingPoint 11 53))
(declare-const x5 (_ FloatingPoint 11 53))
(assert (fp.eq (fp.mul RNE x5 x4) (fp.sub RNE x2 x5)))
(assert (fp.leq (fp.add RNE x4 x5) (fp.mul RNE x5 x1)))
(assert (fp.leq (fp.mul RNE x2 x0) (fp.add RNE x5 x1)))
(assert (fp.eq (fp.mul RNE x4 x0) (fp.div RNE x5 x4)))
(assert (fp.lt (fp.neg x2) (fp.div RNE x5 x5)))
(assert (fp.leq (fp.mul RNE x5 x3) (fp.add RNE x1 x5)))
(assert (fp.gt (fp.sub RNE x5 x4) (fp.add RNE x2 x5)))
(assert (fp.lt (fp.mul RNE x3 x0) (fp.add RNE x1 x0)))
(assert (fp.leq (fp.neg x3) (fp.add RNE x4 x2)))
(assert (fp.geq (fp.div RNE x2 x3) (fp.add RNE x0 x3)))
(assert (fp.leq (fp.neg x0) (fp.sub RNE x5 x1)))
(assert (fp.geq (fp.mul RNE x4 x2) (fp.add RNE x0 x1)))
(check-sat)
