db/data/125001924223031319921478457111329710966.z3.out
-------------------
2500.168710351
